(set-option :print-success false)
(set-logic QF_UF)
(declare-sort x117 0)
(declare-sort x135 0)
(declare-fun x27 () x135)
(declare-fun x14 (x135 x135) x135)
(declare-fun x130 () x135)
(declare-fun x5 () x135)
(declare-fun x100 () x135)
(declare-fun x155 (x135 x135) x135)
(declare-fun x57 () x135)
(assert (or (and (and (not (= (x155 x100 x27) x100)) (and (not (= (x155 x5 x27) x5)) (and (not (= x57 (x155 x57 x27))) (not (= x130 (x155 x130 x27)))))) (not (= (x155 x27 x27) x27))) (or (and (and (and (and (not (= x57 (x155 x57 x100))) (not (= (x155 x130 x100) x130))) (not (= (x155 x5 x100) x5))) (not (= (x155 x100 x100) x100))) (not (= x27 (x155 x27 x100)))) (or (and (not (= x27 (x155 x27 x5))) (and (and (and (not (= x130 (x155 x130 x5))) (not (= (x155 x57 x5) x57))) (not (= (x155 x5 x5) x5))) (not (= x100 (x155 x100 x5))))) (or (and (not (= (x155 x27 x130) x27)) (and (not (= x100 (x155 x100 x130))) (and (not (= x5 (x155 x5 x130))) (and (not (= (x155 x57 x130) x57)) (not (= (x155 x130 x130) x130)))))) (and (and (not (= x100 (x155 x100 x57))) (and (and (not (= x130 (x155 x130 x57))) (not (= (x155 x57 x57) x57))) (not (= x5 (x155 x5 x57))))) (not (= x27 (x155 x27 x57)))))))))
(assert (let ((x11 (x155 x57 x27)) (x132 (x155 x100 x27)) (x82 (x155 x130 x57)) (x105 (x155 x57 x100)) (x10 (x155 x130 x27)) (x25 (x155 x57 x130)) (x103 (x155 x100 x57)) (x89 (x155 x27 x57)) (x33 (x155 x100 x100)) (x88 (x155 x100 x5)) (x120 (x155 x5 x5)) (x69 (x155 x5 x100)) (x16 (x155 x57 x5)) (x148 (x155 x27 x130)) (x40 (x155 x5 x130)) (x101 (x155 x130 x130)) (x151 (x155 x130 x100)) (x63 (x155 x5 x27)) (x145 (x155 x27 x27)) (x30 (x155 x100 x130)) (x38 (x155 x27 x100)) (x3 (x155 x130 x5)) (x77 (x155 x5 x57)) (x73 (x155 x57 x57)) (x144 (x155 x27 x5))) (and (and (and (and (not (= x144 x145)) (and (not (= x38 x144)) (and (not (= x148 x145)) (and (and (and (and (and (not (= x144 x89)) (not (= x148 x89))) (not (= x38 x89))) (not (= x89 x145))) (not (= x148 x144))) (not (= x148 x38)))))) (not (= x145 x38))) (and (and (and (and (and (not (= x11 x16)) (and (not (= x105 x16)) (and (and (and (and (not (= x73 x11)) (and (not (= x73 x105)) (and (not (= x25 x73)) (not (= x73 x16))))) (not (= x25 x16))) (not (= x105 x25))) (not (= x11 x25))))) (not (= x105 x11))) (and (not (= x10 x151)) (and (and (and (and (not (= x101 x151)) (and (and (and (not (= x82 x151)) (and (not (= x82 x3)) (not (= x101 x82)))) (not (= x10 x82))) (not (= x3 x101)))) (not (= x10 x101))) (not (= x3 x151))) (not (= x10 x3))))) (and (and (not (= x63 x120)) (and (and (and (not (= x69 x40)) (and (not (= x120 x40)) (and (and (and (not (= x77 x40)) (not (= x77 x120))) (not (= x69 x77))) (not (= x77 x63))))) (not (= x63 x40))) (not (= x120 x69)))) (not (= x69 x63)))) (and (not (= x132 x33)) (and (and (not (= x88 x33)) (and (not (= x30 x132)) (and (and (not (= x88 x30)) (and (not (= x103 x132)) (and (not (= x103 x33)) (and (not (= x88 x103)) (not (= x103 x30)))))) (not (= x30 x33))))) (not (= x88 x132)))))) (and (and (and (and (not (= x38 x69)) (and (and (not (= x151 x38)) (and (and (and (not (= x105 x38)) (and (not (= x33 x105)) (and (not (= x69 x105)) (not (= x151 x105))))) (not (= x69 x151))) (not (= x151 x33)))) (not (= x33 x69)))) (not (= x33 x38))) (and (and (not (= x88 x144)) (and (and (not (= x120 x88)) (and (not (= x3 x144)) (and (not (= x3 x88)) (and (and (and (not (= x16 x88)) (and (not (= x16 x3)) (not (= x120 x16)))) (not (= x144 x16))) (not (= x3 x120)))))) (not (= x120 x144)))) (and (and (and (and (and (and (and (not (= x40 x101)) (and (not (= x148 x25)) (and (and (not (= x25 x40)) (not (= x25 x101))) (not (= x30 x25))))) (not (= x30 x101))) (not (= x101 x148))) (not (= x30 x40))) (not (= x148 x40))) (not (= x30 x148))) (and (not (= x103 x89)) (and (and (not (= x103 x77)) (and (not (= x82 x89)) (and (not (= x82 x103)) (and (not (= x77 x82)) (and (not (= x73 x89)) (and (and (not (= x82 x73)) (not (= x77 x73))) (not (= x103 x73)))))))) (not (= x89 x77))))))) (and (and (and (and (not (= x145 x10)) (and (not (= x10 x132)) (and (and (not (= x145 x11)) (and (not (= x11 x132)) (and (not (= x11 x10)) (not (= x63 x11))))) (not (= x10 x63))))) (not (= x132 x63))) (not (= x63 x145))) (not (= x132 x145)))))))
(assert (let ((x103 (x155 x100 x100)) (x89 (x155 x27 x27)) (x77 (x155 x5 x5)) (x82 (x155 x130 x130)) (x73 (x155 x57 x57))) (or (and (not (= x27 x89)) (and (not (= x103 x27)) (and (and (not (= x73 x27)) (not (= x27 x82))) (not (= x27 x77))))) (or (or (and (not (= x5 x89)) (and (and (and (not (= x5 x73)) (not (= x82 x5))) (not (= x5 x77))) (not (= x5 x103)))) (or (and (not (= x89 x130)) (and (and (not (= x77 x130)) (and (not (= x82 x130)) (not (= x130 x73)))) (not (= x103 x130)))) (and (and (and (not (= x57 x77)) (and (not (= x57 x73)) (not (= x82 x57)))) (not (= x103 x57))) (not (= x57 x89))))) (and (not (= x100 x89)) (and (not (= x103 x100)) (and (not (= x100 x77)) (and (not (= x73 x100)) (not (= x100 x82))))))))))
(assert (let ((x103 (x155 x5 x5)) (x77 (x155 x130 x130)) (x89 (x155 x100 x100)) (x82 (x155 x57 x57)) (x25 (x155 x27 x27))) (let ((x73 (not (= x57 x82))) (x40 (not (= x5 x103))) (x30 (not (= x89 x100))) (x148 (not (= x25 x27))) (x101 (not (= x130 x77)))) (or (and (and x148 (and (and (and (not (= x57 (x155 x27 x57))) (not (= (x155 x27 x130) x130))) (not (= x5 (x155 x27 x5)))) (not (= x100 (x155 x27 x100))))) (and x148 (and (and (and (not (= x77 x27)) (not (= x82 x27))) (not (= x27 x103))) (not (= x27 x89))))) (or (and (and (not (= x27 (x155 x100 x27))) (and x30 (and (not (= x5 (x155 x100 x5))) (and (not (= x130 (x155 x100 x130))) (not (= (x155 x100 x57) x57)))))) (and (not (= x25 x100)) (and x30 (and (not (= x103 x100)) (and (not (= x100 x82)) (not (= x100 x77))))))) (or (or (and (and (and (and (and x73 (not (= x57 x77))) (not (= x103 x57))) (not (= x89 x57))) (not (= x25 x57))) (and (not (= (x155 x57 x27) x27)) (and (and (not (= (x155 x57 x5) x5)) (and x73 (not (= x130 (x155 x57 x130))))) (not (= x100 (x155 x57 x100)))))) (and (and (not (= x130 x25)) (and (not (= x130 x89)) (and (not (= x130 x103)) (and (not (= x130 x82)) x101)))) (and (not (= (x155 x130 x27) x27)) (and (and (and (not (= x57 (x155 x130 x57))) x101) (not (= x5 (x155 x130 x5)))) (not (= (x155 x130 x100) x100)))))) (and (and (not (= (x155 x5 x27) x27)) (and (not (= (x155 x5 x100) x100)) (and x40 (and (not (= (x155 x5 x130) x130)) (not (= (x155 x5 x57) x57)))))) (and (not (= x5 x25)) (and (not (= x89 x5)) (and x40 (and (not (= x82 x5)) (not (= x77 x5)))))))))))))
(assert (or (or (and (not (= (x155 x100 (x155 x100 x27)) x27)) (and (and (not (= x5 (x155 x100 (x155 x100 x5)))) (and (not (= x57 (x155 x100 (x155 x100 x57)))) (not (= x130 (x155 x100 (x155 x100 x130)))))) (not (= (x155 x100 (x155 x100 x100)) x100)))) (or (or (and (not (= (x155 x130 (x155 x130 x27)) x27)) (and (not (= x100 (x155 x130 (x155 x130 x100)))) (and (not (= x5 (x155 x130 (x155 x130 x5)))) (and (not (= x57 (x155 x130 (x155 x130 x57)))) (not (= x130 (x155 x130 (x155 x130 x130)))))))) (and (not (= (x155 x57 (x155 x57 x27)) x27)) (and (not (= x100 (x155 x57 (x155 x57 x100)))) (and (and (not (= x57 (x155 x57 (x155 x57 x57)))) (not (= (x155 x57 (x155 x57 x130)) x130))) (not (= (x155 x57 (x155 x57 x5)) x5)))))) (and (not (= x27 (x155 x5 (x155 x5 x27)))) (and (not (= (x155 x5 (x155 x5 x100)) x100)) (and (not (= x5 (x155 x5 (x155 x5 x5)))) (and (not (= x130 (x155 x5 (x155 x5 x130)))) (not (= (x155 x5 (x155 x5 x57)) x57)))))))) (and (not (= x27 (x155 x27 (x155 x27 x27)))) (and (and (and (not (= (x155 x27 (x155 x27 x130)) x130)) (not (= (x155 x27 (x155 x27 x57)) x57))) (not (= (x155 x27 (x155 x27 x5)) x5))) (not (= (x155 x27 (x155 x27 x100)) x100))))))
(assert (let ((x144 (x155 x5 x27)) (x103 (x155 x57 x100)) (x16 (x155 x5 x57)) (x120 (x155 x5 x5)) (x101 (x155 x130 x130)) (x69 (x155 x100 x5)) (x151 (x155 x100 x130)) (x25 (x155 x130 x57)) (x88 (x155 x5 x100)) (x82 (x155 x57 x130)) (x3 (x155 x5 x130)) (x145 (x155 x27 x27)) (x132 (x155 x27 x100)) (x89 (x155 x57 x27)) (x30 (x155 x130 x100)) (x33 (x155 x100 x100)) (x40 (x155 x130 x5)) (x38 (x155 x100 x27)) (x11 (x155 x27 x57)) (x77 (x155 x57 x5)) (x148 (x155 x130 x27)) (x105 (x155 x100 x57)) (x63 (x155 x27 x5)) (x73 (x155 x57 x57)) (x10 (x155 x27 x130))) (or (or (or (and (not (= x27 (x155 x144 x144))) (and (and (and (not (= (x155 x16 x16) x57)) (not (= x130 (x155 x3 x3)))) (not (= x5 (x155 x120 x120)))) (not (= x100 (x155 x88 x88))))) (or (and (and (not (= (x155 x30 x30) x100)) (and (and (not (= x57 (x155 x25 x25))) (not (= (x155 x101 x101) x130))) (not (= (x155 x40 x40) x5)))) (not (= (x155 x148 x148) x27))) (and (and (and (and (not (= (x155 x82 x82) x130)) (not (= (x155 x73 x73) x57))) (not (= x5 (x155 x77 x77)))) (not (= (x155 x103 x103) x100))) (not (= (x155 x89 x89) x27))))) (and (not (= x27 (x155 x38 x38))) (and (and (and (not (= x130 (x155 x151 x151))) (not (= x57 (x155 x105 x105)))) (not (= (x155 x69 x69) x5))) (not (= x100 (x155 x33 x33)))))) (and (and (not (= (x155 x132 x132) x100)) (and (not (= x5 (x155 x63 x63))) (and (not (= x57 (x155 x11 x11))) (not (= x130 (x155 x10 x10)))))) (not (= (x155 x145 x145) x27))))))
(assert (let ((x3 (x155 x5 x130)) (x69 (x155 x100 x5)) (x40 (x155 x130 x5)) (x151 (x155 x100 x130)) (x38 (x155 x100 x27)) (x89 (x155 x57 x27)) (x148 (x155 x130 x27)) (x120 (x155 x5 x5)) (x11 (x155 x27 x57)) (x16 (x155 x5 x57)) (x103 (x155 x57 x100)) (x88 (x155 x5 x100)) (x33 (x155 x100 x100)) (x10 (x155 x27 x130)) (x105 (x155 x100 x57)) (x132 (x155 x27 x100)) (x144 (x155 x5 x27)) (x73 (x155 x57 x57)) (x25 (x155 x130 x57)) (x30 (x155 x130 x100)) (x63 (x155 x27 x5)) (x77 (x155 x57 x5)) (x101 (x155 x130 x130)) (x82 (x155 x57 x130)) (x145 (x155 x27 x27))) (and (and (and (and (and (and (and (and (or (or (or (= x73 x5) (or (= x73 x130) (= x73 x57))) (= x100 x73)) (= x73 x27)) (or (= x82 x27) (or (= x100 x82) (or (= x82 x5) (or (= x82 x57) (= x130 x82)))))) (or (or (or (= x77 x5) (or (= x77 x130) (= x57 x77))) (= x100 x77)) (= x27 x77))) (or (or (or (= x5 x103) (or (= x103 x57) (= x103 x130))) (= x103 x100)) (= x103 x27))) (or (= x89 x27) (or (or (= x5 x89) (or (= x130 x89) (= x57 x89))) (= x89 x100)))) (and (or (= x148 x27) (or (= x100 x148) (or (or (= x148 x130) (= x148 x57)) (= x5 x148)))) (and (and (or (or (= x100 x40) (or (= x5 x40) (or (= x40 x130) (= x57 x40)))) (= x27 x40)) (and (or (= x27 x101) (or (= x100 x101) (or (= x5 x101) (or (= x101 x57) (= x101 x130))))) (or (= x25 x27) (or (= x25 x100) (or (= x25 x5) (or (= x25 x57) (= x130 x25))))))) (or (or (= x100 x30) (or (= x5 x30) (or (= x130 x30) (= x57 x30)))) (= x30 x27))))) (and (or (or (or (= x5 x144) (or (= x57 x144) (= x144 x130))) (= x144 x100)) (= x27 x144)) (and (or (= x88 x27) (or (= x100 x88) (or (= x88 x5) (or (= x130 x88) (= x57 x88))))) (and (or (or (= x100 x120) (or (or (= x120 x130) (= x57 x120)) (= x120 x5))) (= x120 x27)) (and (or (or (or (or (= x3 x130) (= x3 x57)) (= x5 x3)) (= x3 x100)) (= x27 x3)) (or (= x27 x16) (or (or (= x16 x5) (or (= x130 x16) (= x16 x57))) (= x100 x16)))))))) (and (and (and (and (or (or (= x100 x151) (or (= x5 x151) (or (= x151 x57) (= x130 x151)))) (= x151 x27)) (or (or (= x100 x105) (or (= x105 x5) (or (= x105 x57) (= x105 x130)))) (= x27 x105))) (or (= x69 x27) (or (= x69 x100) (or (or (= x69 x130) (= x57 x69)) (= x5 x69))))) (or (= x33 x27) (or (or (or (= x33 x130) (= x33 x57)) (= x5 x33)) (= x33 x100)))) (or (= x38 x27) (or (or (= x5 x38) (or (= x38 x57) (= x130 x38))) (= x100 x38))))) (and (and (and (or (or (or (= x5 x63) (or (= x130 x63) (= x57 x63))) (= x100 x63)) (= x27 x63)) (and (or (or (= x100 x11) (or (= x11 x5) (or (= x11 x57) (= x11 x130)))) (= x27 x11)) (or (or (= x100 x10) (or (or (= x10 x57) (= x130 x10)) (= x5 x10))) (= x27 x10)))) (or (= x132 x27) (or (= x100 x132) (or (= x132 x5) (or (= x130 x132) (= x57 x132)))))) (or (= x145 x27) (or (or (or (= x130 x145) (= x145 x57)) (= x145 x5)) (= x100 x145)))))))
(assert (or (and (not (= x27 (x155 (x155 x27 x27) x27))) (and (not (= (x155 (x155 x100 x27) x100) x27)) (and (and (not (= x27 (x155 (x155 x130 x27) x130))) (not (= (x155 (x155 x57 x27) x57) x27))) (not (= (x155 (x155 x5 x27) x5) x27))))) (or (or (or (and (and (and (and (not (= x57 (x155 (x155 x130 x57) x130))) (not (= x57 (x155 (x155 x57 x57) x57)))) (not (= x57 (x155 (x155 x5 x57) x5)))) (not (= (x155 (x155 x100 x57) x100) x57))) (not (= x57 (x155 (x155 x27 x57) x27)))) (and (and (not (= x130 (x155 (x155 x100 x130) x100))) (and (and (not (= x130 (x155 (x155 x57 x130) x57))) (not (= (x155 (x155 x130 x130) x130) x130))) (not (= x130 (x155 (x155 x5 x130) x5))))) (not (= x130 (x155 (x155 x27 x130) x27))))) (and (and (not (= x5 (x155 (x155 x100 x5) x100))) (and (and (not (= x5 (x155 (x155 x130 x5) x130))) (not (= (x155 (x155 x57 x5) x57) x5))) (not (= (x155 (x155 x5 x5) x5) x5)))) (not (= (x155 (x155 x27 x5) x27) x5)))) (and (and (not (= (x155 (x155 x100 x100) x100) x100)) (and (and (not (= x100 (x155 (x155 x57 x100) x57))) (not (= x100 (x155 (x155 x130 x100) x130)))) (not (= (x155 (x155 x5 x100) x5) x100)))) (not (= (x155 (x155 x27 x100) x27) x100))))))
(assert (let ((x62 (x155 x130 x130)) (x102 (x155 x100 x130)) (x137 (x155 x100 x5)) (x131 (x155 x57 x130)) (x114 (x155 x57 x57)) (x48 (x155 x27 x100)) (x17 (x155 x5 x57)) (x71 (x155 x130 x100)) (x23 (x155 x5 x100)) (x35 (x155 x27 x57)) (x55 (x155 x5 x27)) (x138 (x155 x130 x27)) (x142 (x155 x27 x5)) (x134 (x155 x5 x5)) (x15 (x155 x27 x27)) (x150 (x155 x100 x27)) (x118 (x155 x57 x5)) (x119 (x155 x130 x5)) (x64 (x155 x100 x100)) (x75 (x155 x5 x130)) (x18 (x155 x57 x100)) (x92 (x155 x130 x57)) (x41 (x155 x27 x130)) (x139 (x155 x57 x27)) (x19 (x155 x100 x57))) (let ((x89 (not (= x57 x17))) (x120 (not (= x57 x71))) (x147 (not (= x35 x27))) (x115 (not (= x130 x119))) (x152 (not (= x92 x130))) (x53 (not (= x5 x142))) (x82 (not (= x92 x57))) (x63 (not (= x57 x48))) (x88 (not (= x137 x57))) (x72 (not (= x18 x100))) (x60 (not (= x62 x130))) (x26 (not (= x5 x15))) (x39 (not (= x142 x100))) (x6 (not (= x130 x139))) (x11 (not (= x142 x57))) (x90 (not (= x23 x130))) (x123 (not (= x130 x19))) (x10 (not (= x55 x57))) (x37 (not (= x119 x5))) (x104 (not (= x130 x114))) (x91 (not (= x5 x139))) (x79 (not (= x5 x137))) (x67 (not (= x118 x100))) (x124 (not (= x62 x100))) (x153 (not (= x48 x27))) (x3 (not (= x102 x57))) (x107 (not (= x130 x64))) (x61 (not (= x17 x5))) (x28 (not (= x134 x5))) (x85 (not (= x137 x100))) (x8 (not (= x114 x27))) (x40 (not (= x119 x57))) (x73 (not (= x114 x57))) (x151 (not (= x57 x35))) (x65 (not (= x102 x5))) (x56 (not (= x5 x138))) (x108 (not (= x5 x55))) (x49 (not (= x130 x137))) (x44 (not (= x114 x5))) (x98 (not (= x62 x27))) (x9 (not (= x92 x5))) (x22 (not (= x114 x100))) (x16 (not (= x57 x18))) (x21 (not (= x18 x5))) (x13 (not (= x100 x41))) (x126 (not (= x19 x27))) (x30 (not (= x134 x57))) (x112 (not (= x100 x138))) (x84 (not (= x41 x130))) (x76 (not (= x15 x130))) (x116 (not (= x5 x131))) (x58 (not (= x150 x100))) (x70 (not (= x139 x27))) (x59 (not (= x119 x100))) (x145 (not (= x57 x15))) (x154 (not (= x150 x5))) (x83 (not (= x118 x27))) (x7 (not (= x5 x64))) (x99 (not (= x102 x130))) (x31 (not (= x5 x75))) (x149 (not (= x130 x35))) (x106 (not (= x130 x71))) (x45 (not (= x100 x75))) (x78 (not (= x27 x92))) (x141 (not (= x5 x35))) (x80 (not (= x75 x130))) (x33 (not (= x57 x41))) (x143 (not (= x18 x27))) (x105 (not (= x57 x64))) (x110 (not (= x5 x62))) (x157 (not (= x27 x138))) (x52 (not (= x100 x134))) (x86 (not (= x27 x119))) (x4 (not (= x75 x27))) (x140 (not (= x102 x27))) (x125 (not (= x27 x15))) (x121 (not (= x27 x131))) (x96 (not (= x100 x15))) (x25 (not (= x118 x57))) (x74 (not (= x100 x48))) (x87 (not (= x19 x100))) (x158 (not (= x100 x23))) (x128 (not (= x41 x27))) (x66 (not (= x48 x5))) (x47 (not (= x27 x17))) (x1 (not (= x35 x100))) (x2 (not (= x130 x55))) (x93 (not (= x71 x100))) (x20 (not (= x55 x27))) (x54 (not (= x130 x134))) (x122 (not (= x100 x131))) (x146 (not (= x130 x138))) (x69 (not (= x57 x139))) (x111 (not (= x118 x5))) (x29 (not (= x5 x41))) (x127 (not (= x118 x130))) (x32 (not (= x18 x130))) (x46 (not (= x64 x100))) (x109 (not (= x27 x142))) (x144 (not (= x23 x57))) (x36 (not (= x48 x130))) (x68 (not (= x5 x23))) (x136 (not (= x17 x130))) (x97 (not (= x5 x19))) (x113 (not (= x137 x27))) (x12 (not (= x139 x100))) (x148 (not (= x57 x19))) (x132 (not (= x57 x150))) (x24 (not (= x100 x102))) (x42 (not (= x27 x134))) (x94 (not (= x130 x142))) (x34 (not (= x71 x27))) (x38 (not (= x57 x138))) (x50 (not (= x130 x131))) (x129 (not (= x71 x5))) (x77 (not (= x57 x131))) (x159 (not (= x55 x100))) (x43 (not (= x130 x150))) (x101 (not (= x57 x75))) (x103 (not (= x57 x62))) (x81 (not (= x27 x64))) (x156 (not (= x150 x27))) (x133 (not (= x100 x17))) (x51 (not (= x23 x27))) (x95 (not (= x100 x92)))) (or (and (and (and (or x153 x156) (and (or x109 x20) (and (or x147 x70) (or x157 x128)))) (or x125 x125)) (and (and (and (and (or x51 x113) (and (and (or x47 x83) (or x4 x86)) (or x42 x42))) (or x109 x20)) (and (and (or x147 x70) (and (and (and (or x8 x8) (or x121 x78)) (or x47 x83)) (or x126 x143))) (and (or x157 x128) (and (or x34 x140) (and (and (or x78 x121) (or x98 x98)) (or x86 x4)))))) (and (or x153 x156) (and (or x81 x81) (and (and (or x34 x140) (or x143 x126)) (or x113 x51)))))) (or (or (or (and (and (and (or x132 x63) (and (and (or x88 x144) (and (or x3 x120) (or x16 x148))) (or x105 x105))) (and (and (and (or x69 x151) (and (and (and (or x73 x73) (or x82 x77)) (or x89 x25)) (or x148 x16))) (and (and (and (or x101 x40) (and (or x103 x103) (or x77 x82))) (or x120 x3)) (or x33 x38))) (and (and (or x88 x144) (and (and (or x101 x40) (or x89 x25)) (or x30 x30))) (or x10 x11)))) (and (or x145 x145) (and (and (or x10 x11) (and (or x151 x69) (or x33 x38))) (or x132 x63)))) (and (and (and (and (and (and (or x123 x32) (and (and (or x104 x104) (or x152 x50)) (or x127 x136))) (or x6 x149)) (and (and (and (and (or x60 x60) (or x50 x152)) (or x80 x115)) (or x106 x99)) (or x84 x146))) (and (or x94 x2) (and (and (or x54 x54) (and (or x136 x127) (or x80 x115))) (or x49 x90)))) (and (or x43 x36) (and (and (or x49 x90) (and (or x106 x99) (or x123 x32))) (or x107 x107)))) (and (or x76 x76) (and (and (or x94 x2) (and (or x84 x146) (or x149 x6))) (or x43 x36))))) (and (and (and (or x66 x154) (and (or x108 x53) (and (or x91 x141) (or x29 x56)))) (or x26 x26)) (and (and (and (or x108 x53) (and (and (and (or x37 x31) (or x61 x111)) (or x28 x28)) (or x68 x79))) (and (and (or x141 x91) (and (and (or x111 x61) (and (or x9 x116) (or x44 x44))) (or x21 x97))) (and (or x56 x29) (and (or x129 x65) (and (and (or x110 x110) (or x9 x116)) (or x37 x31)))))) (and (or x66 x154) (and (and (and (or x21 x97) (or x129 x65)) (or x79 x68)) (or x7 x7)))))) (and (and (and (or x74 x58) (and (or x46 x46) (and (or x158 x85) (and (or x93 x24) (or x72 x87))))) (and (and (and (and (or x24 x93) (and (and (or x95 x122) (or x124 x124)) (or x59 x45))) (or x112 x13)) (and (and (or x87 x72) (and (and (or x122 x95) (or x22 x22)) (or x133 x67))) (or x1 x12))) (and (or x39 x159) (and (or x85 x158) (and (or x52 x52) (and (or x67 x133) (or x45 x59))))))) (and (and (and (or x159 x39) (and (or x112 x13) (or x12 x1))) (or x58 x74)) (or x96 x96))))))))
(assert (and (= x27 (x155 x5 x5)) (and (= (x155 x100 x57) x5) (and (= x130 (x155 x5 x57)) (= (x155 x100 x100) x57)))))
(assert (let ((x63 (x155 x27 x100)) (x38 (x155 x130 x27)) (x77 (x155 x57 x130)) (x101 (x155 x5 x130)) (x151 (x155 x27 x57)) (x145 (not (= x27 (x155 x27 x27)))) (x40 (x155 x130 x5)) (x148 (x155 x100 x57)) (x132 (x155 x100 x27)) (x89 (x155 x5 x57)) (x16 (x155 x57 x100)) (x144 (x155 x5 x100)) (x10 (x155 x5 x27)) (x69 (x155 x57 x27)) (x103 (not (= (x155 x130 x130) x130))) (x88 (x155 x100 x5)) (x82 (x155 x130 x57)) (x120 (x155 x130 x100)) (x25 (x155 x57 x5)) (x73 (not (= x57 (x155 x57 x57)))) (x11 (x155 x27 x5)) (x30 (not (= (x155 x5 x5) x5))) (x3 (x155 x100 x130)) (x33 (x155 x27 x130)) (x105 (not (= (x155 x100 x100) x100)))) (and (and (and (and (and (or (not (= x88 x5)) (not (= x5 x144))) (and (and (or (not (= x5 x89)) (not (= x25 x5))) (or (not (= x101 x5)) (not (= x5 x40)))) (or x30 x30))) (or (not (= x5 x10)) (not (= x11 x5)))) (and (and (and (and (and (or x103 x103) (or (not (= x130 x82)) (not (= x130 x77)))) (or (not (= x101 x130)) (not (= x40 x130)))) (or (not (= x130 x120)) (not (= x3 x130)))) (or (not (= x33 x130)) (not (= x130 x38)))) (and (and (or (not (= x57 x148)) (not (= x16 x57))) (and (or (not (= x57 x25)) (not (= x89 x57))) (and (or (not (= x57 x82)) (not (= x57 x77))) (or x73 x73)))) (or (not (= x151 x57)) (not (= x69 x57)))))) (and (and (or x105 x105) (and (and (or (not (= x100 x148)) (not (= x100 x16))) (or (not (= x100 x120)) (not (= x3 x100)))) (or (not (= x88 x100)) (not (= x144 x100))))) (or (not (= x63 x100)) (not (= x100 x132))))) (and (and (and (and (or (not (= x151 x27)) (not (= x69 x27))) (or (not (= x27 x38)) (not (= x27 x33)))) (or (not (= x27 x10)) (not (= x11 x27)))) (or (not (= x63 x27)) (not (= x27 x132)))) (or x145 x145)))))
(assert (not (and (and (and (and (and (and (and (and (and (and (and (= (x155 x5 x27) x100) (and (and (and (and (and (= (x155 x130 x27) x5) (and (= x100 (x155 x130 x100)) (and (= (x155 x130 x5) x130) (and (and (= x57 (x155 x130 x57)) (and (= (x155 x57 x27) x130) (and (and (and (= (x155 x57 x130) x5) (= (x155 x57 x57) x100)) (= (x155 x57 x5) x57)) (= (x155 x57 x100) x27)))) (= (x155 x130 x130) x27))))) (= x130 (x155 x5 x57))) (= x57 (x155 x5 x130))) (= (x155 x5 x5) x27)) (= (x155 x5 x100) x5))) (= (x155 x100 x57) x5)) (= x130 (x155 x100 x130))) (= x100 (x155 x100 x5))) (= (x155 x100 x100) x57)) (= (x155 x100 x27) x27)) (= (x155 x27 x57) x27)) (= x100 (x155 x27 x130))) (= x5 (x155 x27 x5))) (= (x155 x27 x100) x130)) (= x57 (x155 x27 x27)))))
(assert (or (= x27 (x155 (x155 x27 x27) x27)) (or (= (x155 (x155 x100 x100) x100) x100) (or (= x5 (x155 (x155 x5 x5) x5)) (or (= x130 (x155 (x155 x130 x130) x130)) (= x57 (x155 (x155 x57 x57) x57)))))))
(assert (and (and (and (and (and (not (= x130 x100)) (and (not (= x5 x130)) (and (not (= x27 x57)) (and (not (= x57 x100)) (and (not (= x130 x57)) (not (= x57 x5))))))) (not (= x27 x130))) (not (= x5 x100))) (not (= x27 x5))) (not (= x100 x27))))
(assert (let ((x148 (= x100 (x155 x100 x57))) (x89 (= (x155 x5 x57) x5)) (x132 (= (x155 x100 x27) x100)) (x33 (= (x155 x27 x130) x27)) (x120 (= x130 (x155 x130 x100))) (x63 (= x27 (x155 x27 x100))) (x105 (= (x155 x100 x100) x100)) (x3 (= (x155 x100 x130) x100)) (x16 (= x57 (x155 x57 x100))) (x25 (= (x155 x57 x5) x57)) (x38 (= x130 (x155 x130 x27))) (x77 (= x57 (x155 x57 x130))) (x103 (= x130 (x155 x130 x130))) (x10 (= (x155 x5 x27) x5)) (x144 (= x5 (x155 x5 x100))) (x30 (= x5 (x155 x5 x5))) (x101 (= (x155 x5 x130) x5)) (x40 (= (x155 x130 x5) x130)) (x151 (= (x155 x27 x57) x27)) (x145 (= (x155 x27 x27) x27)) (x88 (= x100 (x155 x100 x5))) (x69 (= (x155 x57 x27) x57)) (x82 (= x130 (x155 x130 x57))) (x11 (= x27 (x155 x27 x5))) (x73 (= x57 (x155 x57 x57)))) (or (or (or (or (or (and x33 x38) (and x151 x69)) (and x11 x10)) (and x132 x63)) (and x145 x145)) (or (or (or (and x105 x105) (or (and x88 x144) (or (and x16 x148) (and x3 x120)))) (and x132 x63)) (or (or (and x10 x11) (or (or (and x30 x30) (or (and x40 x101) (and x25 x89))) (and x144 x88))) (or (or (or (or (and x89 x25) (or (and x73 x73) (and x82 x77))) (and x16 x148)) (and x69 x151)) (or (or (or (or (and x103 x103) (and x82 x77)) (and x40 x101)) (and x3 x120)) (and x38 x33))))))))
(assert (and (and (and (not (= x5 (x155 x5 x5))) (and (not (= (x155 x57 x57) x57)) (not (= x130 (x155 x130 x130))))) (not (= (x155 x100 x100) x100))) (not (= x27 (x155 x27 x27)))))
(assert (let ((x103 (x155 x100 x100)) (x89 (x155 x27 x27)) (x73 (x155 x57 x57)) (x82 (x155 x130 x130)) (x77 (x155 x5 x5))) (or (= (x155 x89 x89) x27) (or (or (or (= (x155 x82 x82) x130) (= x57 (x155 x73 x73))) (= (x155 x77 x77) x5)) (= (x155 x103 x103) x100)))))
(assert (let ((x10 (x155 x130 x27)) (x104 (x155 x27 x130)) (x37 (x155 x27 x100)) (x12 (x155 x27 x27)) (x89 (x155 x57 x100)) (x25 (x155 x57 x27)) (x138 (x155 x5 x5)) (x30 (x155 x5 x57)) (x77 (x155 x57 x130)) (x38 (x155 x130 x5)) (x82 (x155 x57 x57)) (x11 (x155 x130 x100)) (x103 (x155 x57 x5)) (x148 (x155 x100 x57)) (x9 (x155 x100 x100)) (x116 (x155 x100 x27)) (x134 (x155 x100 x5)) (x54 (x155 x27 x5)) (x136 (x155 x5 x27)) (x40 (x155 x130 x57)) (x16 (x155 x27 x57)) (x114 (x155 x100 x130)) (x33 (x155 x130 x130)) (x41 (x155 x5 x100)) (x145 (x155 x5 x130))) (let ((x19 (= x100 x33)) (x122 (= x27 x41)) (x90 (= x100 x138)) (x35 (= x27 x77)) (x105 (= x77 x57)) (x147 (= x16 x27)) (x98 (= x10 x5)) (x119 (= x57 x38)) (x23 (= x30 x5)) (x84 (= x114 x57)) (x34 (= x10 x100)) (x74 (= x130 x12)) (x24 (= x57 x116)) (x47 (= x136 x5)) (x15 (= x148 x130)) (x49 (= x100 x38)) (x53 (= x100 x41)) (x126 (= x100 x54)) (x124 (= x27 x9)) (x83 (= x5 x116)) (x31 (= x130 x9)) (x115 (= x130 x138)) (x95 (= x27 x11)) (x113 (= x100 x136)) (x80 (= x38 x130)) (x111 (= x41 x130)) (x1 (= x130 x37)) (x112 (= x130 x10)) (x129 (= x11 x5)) (x132 (= x33 x130)) (x94 (= x89 x57)) (x72 (= x136 x57)) (x118 (= x5 x33)) (x56 (= x11 x100)) (x141 (= x114 x100)) (x140 (= x25 x100)) (x107 (= x145 x27)) (x146 (= x57 x134)) (x60 (= x103 x57)) (x46 (= x130 x54)) (x36 (= x41 x57)) (x159 (= x116 x130)) (x73 (= x57 x82)) (x158 (= x104 x130)) (x156 (= x116 x27)) (x13 (= x25 x130)) (x93 (= x57 x12)) (x50 (= x57 x30)) (x99 (= x100 x145)) (x70 (= x104 x27)) (x48 (= x38 x27)) (x39 (= x130 x136)) (x55 (= x5 x103)) (x149 (= x138 x27)) (x21 (= x5 x134)) (x68 (= x9 x5)) (x108 (= x100 x9)) (x144 (= x40 x57)) (x29 (= x100 x89)) (x79 (= x41 x5)) (x151 (= x33 x57)) (x45 (= x54 x57)) (x142 (= x38 x5)) (x85 (= x16 x130)) (x62 (= x145 x57)) (x92 (= x77 x5)) (x43 (= x57 x9)) (x97 (= x114 x5)) (x3 (= x82 x5)) (x20 (= x10 x27)) (x150 (= x103 x27)) (x81 (= x100 x12)) (x120 (= x100 x82)) (x65 (= x89 x5)) (x133 (= x57 x16)) (x7 (= x148 x100)) (x96 (= x5 x104)) (x59 (= x37 x57)) (x63 (= x130 x77)) (x2 (= x57 x11)) (x76 (= x114 x130)) (x91 (= x100 x134)) (x131 (= x5 x40)) (x28 (= x5 x148)) (x42 (= x104 x100)) (x26 (= x134 x27)) (x88 (= x27 x82)) (x67 (= x57 x104)) (x66 (= x27 x148)) (x78 (= x37 x5)) (x153 (= x27 x136)) (x86 (= x100 x16)) (x102 (= x130 x145)) (x121 (= x5 x25)) (x71 (= x30 x130)) (x75 (= x138 x57)) (x109 (= x25 x27)) (x127 (= x103 x130)) (x32 (= x30 x100)) (x101 (= x130 x82)) (x87 (= x10 x57)) (x106 (= x103 x100)) (x139 (= x27 x40)) (x52 (= x57 x25)) (x123 (= x138 x5)) (x154 (= x27 x114)) (x44 (= x130 x134)) (x110 (= x89 x130)) (x143 (= x37 x100)) (x125 (= x27 x12)) (x157 (= x27 x37)) (x4 (= x12 x5)) (x17 (= x100 x40)) (x58 (= x5 x16)) (x8 (= x5 x54)) (x51 (= x100 x116)) (x69 (= x130 x40)) (x137 (= x145 x5)) (x152 (= x33 x27)) (x128 (= x27 x54)) (x64 (= x30 x27)) (x6 (= x57 x148)) (x22 (= x89 x27)) (x61 (= x11 x130)) (x18 (= x77 x100))) (and (and (and (and (and (and (and (or (or (or x32 (or x17 x120)) x7) x86) (or (or (or x106 (or x18 x120)) x29) x140)) (and (and (or (or x65 (or (or x92 x3) x55)) x121) (or (or x28 (or (or x3 x131) x23)) x58)) (and (and (or x13 (or x110 (or (or x101 x63) x127))) (or (or (or (or x101 x69) x71) x15) x85)) (and (or (or x6 (or x50 (or x144 x73))) x133) (or (or x94 (or (or x105 x73) x60)) x52))))) (and (or (or (or x150 (or x88 x35)) x22) x109) (or (or x66 (or (or x139 x88) x64)) x147))) (and (and (or (or x95 (or x48 (or x152 x139))) x20) (or (or (or (or x35 x152) x107) x154) x70)) (and (and (and (or (or x97 (or (or x118 x92) x137)) x96) (or (or (or (or x118 x131) x142) x129) x98)) (and (and (or (or (or x62 (or x105 x151)) x84) x67) (or (or (or x119 (or x144 x151)) x2) x87)) (and (or x112 (or x61 (or x80 (or x132 x69)))) (or x158 (or (or x102 (or x132 x63)) x76))))) (and (or x34 (or x56 (or (or x17 x19) x49))) (or x42 (or (or (or x19 x18) x99) x141)))))) (and (and (or (or (or x149 (or x48 x150)) x26) x128) (or (or x122 (or (or x107 x64) x149)) x153)) (and (and (and (and (or (or x44 (or (or x127 x80) x115)) x46) (or (or (or x115 (or x71 x102)) x111) x39)) (and (or x45 (or (or (or x60 x119) x75) x146)) (or (or (or (or x62 x50) x75) x36) x72))) (and (or x47 (or (or (or x137 x23) x123) x79)) (or (or x21 (or (or x55 x142) x123)) x8))) (and (or (or (or (or x106 x49) x90) x91) x126) (or (or (or x90 (or x32 x99)) x53) x113))))) (and (and (or (or (or x26 (or x154 x66)) x124) x156) (or x157 (or x124 (or (or x22 x95) x122)))) (and (and (and (or x83 (or x68 (or x21 (or x97 x28)))) (or (or (or x79 (or x65 x129)) x68) x78)) (and (and (or x159 (or x31 (or (or x15 x76) x44))) (or (or x31 (or x111 (or x61 x110))) x1)) (and (or x24 (or x43 (or x146 (or x6 x84)))) (or x59 (or (or x36 (or x94 x2)) x43))))) (and (or (or (or x91 (or x141 x7)) x108) x51) (or x143 (or x108 (or x53 (or x29 x56)))))))) (and (and (or x125 (or (or (or x20 x109) x153) x156)) (or x125 (or x157 (or (or x147 x70) x128)))) (and (and (or (or (or (or x86 x42) x126) x143) x81) (or x81 (or x51 (or (or x140 x34) x113)))) (and (and (or x4 (or (or (or x98 x121) x47) x83)) (or (or (or (or x96 x58) x8) x78) x4)) (and (and (or x93 (or (or (or x52 x87) x72) x24)) (or x93 (or (or x45 (or x67 x133)) x59))) (and (or (or (or (or x112 x13) x39) x159) x74) (or (or x1 (or x46 (or x85 x158))) x74))))))))))
(assert (or (or (or (and (not (= (x155 (x155 x5 x27) x5) x27)) (and (and (not (= x5 (x155 (x155 x5 x5) x5))) (and (not (= x130 (x155 (x155 x5 x130) x5))) (not (= (x155 (x155 x5 x57) x5) x57)))) (not (= x100 (x155 (x155 x5 x100) x5))))) (or (and (not (= (x155 (x155 x57 x27) x57) x27)) (and (and (and (not (= x130 (x155 (x155 x57 x130) x57))) (not (= x57 (x155 (x155 x57 x57) x57)))) (not (= x5 (x155 (x155 x57 x5) x57)))) (not (= x100 (x155 (x155 x57 x100) x57))))) (and (not (= (x155 (x155 x130 x27) x130) x27)) (and (and (and (not (= (x155 (x155 x130 x130) x130) x130)) (not (= x57 (x155 (x155 x130 x57) x130)))) (not (= x5 (x155 (x155 x130 x5) x130)))) (not (= x100 (x155 (x155 x130 x100) x130))))))) (and (not (= (x155 (x155 x100 x27) x100) x27)) (and (not (= x100 (x155 (x155 x100 x100) x100))) (and (and (not (= (x155 (x155 x100 x130) x100) x130)) (not (= x57 (x155 (x155 x100 x57) x100)))) (not (= x5 (x155 (x155 x100 x5) x100))))))) (and (and (and (and (not (= (x155 (x155 x27 x57) x27) x57)) (not (= (x155 (x155 x27 x130) x27) x130))) (not (= (x155 (x155 x27 x5) x27) x5))) (not (= (x155 (x155 x27 x100) x27) x100))) (not (= x27 (x155 (x155 x27 x27) x27))))))
(check-sat)
(exit)
